files/upTests/_tuples_of_matrix/z/muti2/0001.eprime.solution
language ESSENCE' 1.0
$ minion Nodes: 1
$ minion TotalTime: 0.0004
$ Savile Row TotalTime: 0.147
letting y_tuple1_tuple3 be [12, 13]
letting y_tuple1_tuple1 be [10, 11]
letting y_tuple1_tuple2_tuple2 be [64, 64]
letting y_tuple1_tuple2_tuple1 be [43, 43]
